####################################################################### 
# 
# This file contains crystal structure data downloaded from the 
# Cambridge Structural Database (CSD) hosted by the Cambridge 
# Crystallographic Data Centre (CCDC).
# 
# Full information about CCDC data access policies and citation 
# guidelines are available at http://www.ccdc.cam.ac.uk/access/V1 
# 
# Audit and citation data items may have been added by the CCDC. 
# Please retain this information to preserve the provenance of 
# this file and to allow appropriate attribution of the data. 
# 
#######################################################################

data_jj1asq
_audit_block_doi                 10.5517/cc1031bh
_database_code_depnum_ccdc_archive 'CCDC 926445'
loop_
_citation_id
_citation_doi
_citation_year
1 10.1002/anie.201308606 2014
_audit_update_record             
;
2013-02-26 deposited with the CCDC.	2023-04-06 downloaded from the CCDC.
;
#TrackingRef 'jj1asq.cif'


_audit_creation_method           SHELXL-97
_chemical_name_systematic        
;
?
;
_chemical_name_common            ?
_chemical_melting_point          ?
_chemical_formula_moiety         ?
_chemical_formula_sum            'C28 H20 N2 O4 Zn'
_chemical_formula_weight         513.83

loop_
_atom_type_symbol
_atom_type_description
_atom_type_scat_dispersion_real
_atom_type_scat_dispersion_imag
_atom_type_scat_source
C C 0.0033 0.0016 'International Tables Vol C Tables 4.2.6.8 and 6.1.1.4'
H H 0.0000 0.0000 'International Tables Vol C Tables 4.2.6.8 and 6.1.1.4'
N N 0.0061 0.0033 'International Tables Vol C Tables 4.2.6.8 and 6.1.1.4'
O O 0.0106 0.0060 'International Tables Vol C Tables 4.2.6.8 and 6.1.1.4'
Zn Zn 0.2839 1.4301 'International Tables Vol C Tables 4.2.6.8 and 6.1.1.4'

_symmetry_cell_setting           Monoclinic
_symmetry_space_group_name_H-M   P2/n

loop_
_symmetry_equiv_pos_as_xyz
'x, y, z'
'-x+1/2, y, -z+1/2'
'-x, -y, -z'
'x-1/2, -y, z-1/2'

_cell_length_a                   13.9519(9)
_cell_length_b                   7.6513(5)
_cell_length_c                   14.2991(10)
_cell_angle_alpha                90.00
_cell_angle_beta                 99.359(5)
_cell_angle_gamma                90.00
_cell_volume                     1506.11(17)
_cell_formula_units_Z            2
_cell_measurement_temperature    296(2)
_cell_measurement_reflns_used    1589
_cell_measurement_theta_min      2.23
_cell_measurement_theta_max      19.23

_exptl_crystal_description       Block
_exptl_crystal_colour            yellow
_exptl_crystal_size_max          0.12
_exptl_crystal_size_mid          0.11
_exptl_crystal_size_min          0.10
_exptl_crystal_density_meas      0
_exptl_crystal_density_diffrn    1.133
_exptl_crystal_density_method    'not measured'
_exptl_crystal_F_000             528
_exptl_absorpt_coefficient_mu    0.845
_exptl_absorpt_correction_type   multi-scan
_exptl_absorpt_correction_T_min  0.9054
_exptl_absorpt_correction_T_max  0.9203
_exptl_absorpt_process_details   'SADABS (Sheldrick, 2008)'

_exptl_special_details           
;
?
;

_diffrn_ambient_temperature      296(2)
_diffrn_radiation_wavelength     0.71073
_diffrn_radiation_type           MoK\a
_diffrn_radiation_source         'fine-focus sealed tube'
_diffrn_radiation_monochromator  graphite
_diffrn_measurement_device_type  'Bruker APEX-II CCD'
_diffrn_measurement_method       '\f and \w scans'
_diffrn_detector_area_resol_mean ?
_diffrn_standards_number         0
_diffrn_standards_interval_count ?
_diffrn_standards_interval_time  ?
_diffrn_standards_decay_%        ?
_diffrn_reflns_number            23024
_diffrn_reflns_av_R_equivalents  0.1006
_diffrn_reflns_av_sigmaI/netI    0.0836
_diffrn_reflns_limit_h_min       -17
_diffrn_reflns_limit_h_max       17
_diffrn_reflns_limit_k_min       -9
_diffrn_reflns_limit_k_max       9
_diffrn_reflns_limit_l_min       -17
_diffrn_reflns_limit_l_max       17
_diffrn_reflns_theta_min         2.23
_diffrn_reflns_theta_max         26.50
_reflns_number_total             3121
_reflns_number_gt                1770
_reflns_threshold_expression     >2sigma(I)

_computing_data_collection       'Bruker APEX2'
_computing_cell_refinement       'Bruker SAINT'
_computing_data_reduction        'Bruker SAINT'
_computing_structure_solution    'SHELXS-97 (Sheldrick, 1990)'
_computing_structure_refinement  'SHELXL-97 (Sheldrick, 1997)'
_computing_molecular_graphics    'Bruker SHELXTL'
_computing_publication_material  'Bruker SHELXTL'

_refine_special_details          
;
Refinement of F^2^ against ALL reflections. The weighted R-factor wR and
goodness of fit S are based on F^2^, conventional R-factors R are based
on F, with F set to zero for negative F^2^. The threshold expression of
F^2^ > 2sigma(F^2^) is used only for calculating R-factors(gt) etc. and is
not relevant to the choice of reflections for refinement. R-factors based
on F^2^ are statistically about twice as large as those based on F, and R-
factors based on ALL data will be even larger.
;

_refine_ls_structure_factor_coef Fsqd
_refine_ls_matrix_type           full
_refine_ls_weighting_scheme      calc
_refine_ls_weighting_details     
'calc w=1/[\s^2^(Fo^2^)+(0.0780P)^2^+0.0000P] where P=(Fo^2^+2Fc^2^)/3'
_atom_sites_solution_primary     direct
_atom_sites_solution_secondary   difmap
_atom_sites_solution_hydrogens   geom
_refine_ls_hydrogen_treatment    constr
_refine_ls_extinction_method     none
_refine_ls_extinction_coef       ?
_refine_ls_number_reflns         3121
_refine_ls_number_parameters     159
_refine_ls_number_restraints     0
_refine_ls_R_factor_all          0.1146
_refine_ls_R_factor_gt           0.0662
_refine_ls_wR_factor_ref         0.1713
_refine_ls_wR_factor_gt          0.1564
_refine_ls_goodness_of_fit_ref   1.038
_refine_ls_restrained_S_all      1.038
_refine_ls_shift/su_max          0.000
_refine_ls_shift/su_mean         0.000

loop_
_atom_site_label
_atom_site_type_symbol
_atom_site_fract_x
_atom_site_fract_y
_atom_site_fract_z
_atom_site_U_iso_or_equiv
_atom_site_adp_type
_atom_site_occupancy
_atom_site_symmetry_multiplicity
_atom_site_calc_flag
_atom_site_refinement_flags
_atom_site_disorder_assembly
_atom_site_disorder_group
Zn1 Zn 0.7500 0.59944(8) 0.7500 0.0615(3) Uani 1 2 d S . .
N1 N 0.8136(2) 0.4163(4) 0.6760(3) 0.0578(9) Uani 1 1 d . . .
C1 C 0.7874(3) 0.3895(5) 0.5824(3) 0.0603(11) Uani 1 1 d . . .
H1 H 0.7508 0.4744 0.5462 0.072 Uiso 1 1 calc R . .
C2 C 0.8128(3) 0.2411(5) 0.5382(3) 0.0622(11) Uani 1 1 d . . .
H2 H 0.7941 0.2288 0.4731 0.075 Uiso 1 1 calc R . .
C3 C 0.8663(3) 0.1088(5) 0.5895(3) 0.0569(10) Uani 1 1 d . . .
C4 C 0.8941(3) 0.1377(5) 0.6859(3) 0.0603(11) Uani 1 1 d . . .
H4 H 0.9306 0.0548 0.7237 0.072 Uiso 1 1 calc R . .
C5 C 0.8670(3) 0.2909(5) 0.7246(3) 0.0646(11) Uani 1 1 d . . .
H5 H 0.8872 0.3085 0.7891 0.077 Uiso 1 1 calc R . .
C6 C 0.8912(3) -0.0507(5) 0.5431(3) 0.0637(12) Uani 1 1 d . . .
H6 H 0.8723 -0.0568 0.4777 0.076 Uiso 1 1 calc R . .
C7 C 0.9378(3) -0.1873(5) 0.5844(3) 0.0623(11) Uani 1 1 d . . .
H7 H 0.9530 -0.1824 0.6502 0.075 Uiso 1 1 calc R . .
C8 C 0.9690(3) -0.3467(5) 0.5397(3) 0.0562(10) Uani 1 1 d . . .
C9 C 0.9449(3) -0.3794(5) 0.4423(3) 0.0584(11) Uani 1 1 d . . .
H9 H 0.9073 -0.2997 0.4031 0.070 Uiso 1 1 calc R . .
C10 C 1.0231(3) -0.4711(6) 0.5949(3) 0.0592(11) Uani 1 1 d . . .
H10 H 1.0384 -0.4524 0.6599 0.071 Uiso 1 1 calc R . .
O1 O 0.8233(3) 0.7621(5) 0.8354(3) 0.0998(11) Uani 1 1 d . . .
O2 O 0.9400(4) 0.5894(6) 0.8744(5) 0.222(4) Uani 1 1 d . . .
C11 C 0.9037(4) 0.7296(5) 0.8779(4) 0.0827(16) Uani 1 1 d . . .
C12 C 0.9541(3) 0.8688(4) 0.9415(3) 0.0642(12) Uani 1 1 d . . .
C13 C 1.0401(4) 0.8394(6) 0.9989(4) 0.107(2) Uani 1 1 d . . .
H13 H 1.0682 0.7291 0.9998 0.128 Uiso 1 1 calc R . .
C14 C 0.9125(4) 1.0292(6) 0.9432(4) 0.0948(18) Uani 1 1 d . . .
H14 H 0.8526 1.0514 0.9059 0.114 Uiso 1 1 calc R . .

loop_
_atom_site_aniso_label
_atom_site_aniso_U_11
_atom_site_aniso_U_22
_atom_site_aniso_U_33
_atom_site_aniso_U_23
_atom_site_aniso_U_13
_atom_site_aniso_U_12
Zn1 0.0635(5) 0.0491(4) 0.0674(6) 0.000 -0.0027(3) 0.000
N1 0.058(2) 0.058(2) 0.055(2) 0.0018(17) 0.0020(17) -0.0059(16)
C1 0.056(3) 0.062(3) 0.061(3) 0.009(2) 0.004(2) -0.005(2)
C2 0.070(3) 0.062(3) 0.051(3) 0.002(2) 0.000(2) -0.016(2)
C3 0.057(3) 0.055(2) 0.058(3) 0.002(2) 0.009(2) -0.010(2)
C4 0.073(3) 0.058(2) 0.048(3) 0.006(2) 0.005(2) 0.003(2)
C5 0.077(3) 0.063(3) 0.051(3) -0.004(2) 0.003(2) -0.002(2)
C6 0.070(3) 0.064(3) 0.055(3) -0.002(2) 0.005(2) -0.009(2)
C7 0.071(3) 0.068(3) 0.047(3) -0.002(2) 0.007(2) -0.010(2)
C8 0.055(2) 0.064(2) 0.050(3) -0.003(2) 0.010(2) -0.0057(19)
C9 0.066(3) 0.065(3) 0.043(3) -0.004(2) 0.005(2) -0.003(2)
C10 0.066(3) 0.071(3) 0.040(3) -0.006(2) 0.007(2) -0.009(2)
O1 0.094(3) 0.088(2) 0.110(3) -0.031(2) -0.006(2) -0.006(2)
O2 0.221(6) 0.096(3) 0.283(8) -0.089(4) -0.154(6) 0.062(3)
C11 0.102(4) 0.044(2) 0.088(4) 0.003(2) -0.027(3) 0.018(2)
C12 0.085(3) 0.040(2) 0.060(3) 0.0018(19) -0.012(2) -0.0007(19)
C13 0.120(5) 0.064(3) 0.118(5) -0.030(3) -0.037(4) 0.033(3)
C14 0.086(4) 0.071(3) 0.112(5) -0.027(3) -0.030(3) 0.020(3)

_geom_special_details            
;
All esds (except the esd in the dihedral angle between two l.s. planes)
are estimated using the full covariance matrix. The cell esds are taken
into account individually in the estimation of esds in distances, angles
and torsion angles; correlations between esds in cell parameters are only
used when they are defined by crystal symmetry. An approximate (isotropic)
treatment of cell esds is used for estimating esds involving l.s. planes.
;

loop_
_geom_bond_atom_site_label_1
_geom_bond_atom_site_label_2
_geom_bond_distance
_geom_bond_site_symmetry_2
_geom_bond_publ_flag
Zn1 O1 1.918(3) . ?
Zn1 O1 1.918(3) 2_656 ?
Zn1 N1 2.043(3) 2_656 ?
Zn1 N1 2.043(3) . ?
N1 C5 1.337(5) . ?
N1 C1 1.346(5) . ?
C1 C2 1.373(5) . ?
C2 C3 1.394(5) . ?
C3 C4 1.387(6) . ?
C3 C6 1.458(6) . ?
C4 C5 1.375(5) . ?
C6 C7 1.319(6) . ?
C7 C8 1.476(6) . ?
C8 C10 1.380(6) . ?
C8 C9 1.401(6) . ?
C9 C10 1.367(5) 3_746 ?
C10 C9 1.367(5) 3_746 ?
O1 C11 1.212(5) . ?
O2 C11 1.190(5) . ?
C11 C12 1.499(6) . ?
C12 C13 1.358(6) . ?
C12 C14 1.360(5) . ?
C13 C14 1.398(6) 3_777 ?
C14 C13 1.398(6) 3_777 ?

loop_
_geom_angle_atom_site_label_1
_geom_angle_atom_site_label_2
_geom_angle_atom_site_label_3
_geom_angle
_geom_angle_site_symmetry_1
_geom_angle_site_symmetry_3
_geom_angle_publ_flag
O1 Zn1 O1 99.1(2) . 2_656 ?
O1 Zn1 N1 110.30(16) . 2_656 ?
O1 Zn1 N1 122.89(14) 2_656 2_656 ?
O1 Zn1 N1 122.89(14) . . ?
O1 Zn1 N1 110.30(16) 2_656 . ?
N1 Zn1 N1 93.39(18) 2_656 . ?
C5 N1 C1 116.4(4) . . ?
C5 N1 Zn1 118.4(3) . . ?
C1 N1 Zn1 123.3(3) . . ?
N1 C1 C2 122.4(4) . . ?
C1 C2 C3 121.0(4) . . ?
C4 C3 C2 116.5(4) . . ?
C4 C3 C6 122.5(4) . . ?
C2 C3 C6 121.0(4) . . ?
C5 C4 C3 119.0(4) . . ?
N1 C5 C4 124.7(4) . . ?
C7 C6 C3 126.5(4) . . ?
C6 C7 C8 128.3(4) . . ?
C10 C8 C9 117.8(4) . . ?
C10 C8 C7 119.6(4) . . ?
C9 C8 C7 122.6(4) . . ?
C10 C9 C8 119.7(4) 3_746 . ?
C9 C10 C8 122.5(4) 3_746 . ?
C11 O1 Zn1 122.7(3) . . ?
O2 C11 O1 121.9(5) . . ?
O2 C11 C12 120.3(5) . . ?
O1 C11 C12 117.6(4) . . ?
C13 C12 C14 118.5(4) . . ?
C13 C12 C11 122.0(4) . . ?
C14 C12 C11 119.5(4) . . ?
C12 C13 C14 121.7(4) . 3_777 ?
C12 C14 C13 119.8(4) . 3_777 ?

_diffrn_measured_fraction_theta_max 1.000
_diffrn_reflns_theta_full        26.50
_diffrn_measured_fraction_theta_full 1.000
_refine_diff_density_max         0.643
_refine_diff_density_min         -0.404
_refine_diff_density_rms         0.072

# SQUEEZE RESULTS (APPEND TO CIF)
loop_
_platon_squeeze_void_nr
_platon_squeeze_void_average_x
_platon_squeeze_void_average_y
_platon_squeeze_void_average_z
_platon_squeeze_void_volume
_platon_squeeze_void_count_electrons
1 0.250 0.011 0.750 236.3 1.0
2 0.750 -0.062 0.250 236.3 0.9
_platon_squeeze_details          
;
PLATON: Total Potential Solvent Accessible Void Vol. 476.3 Ang^3
(31.6%) for the total volume 1506.1 Ang^3 First we tried to model
the highly disordered solvent region. The scattered electron densities
were assigned to 22 O of water molecules with occupancies varies from
0.0625 to 0.25 of which 7 of them were sitting at the special position.
The individual isotropic thermal parameters were refined for these O
atoms. No hydrogens were included. However, the model refined to R1
= 0.0830 for 1665 Fo > 4 sig(Fo) and 0.534 for all 3121 data and 234
parameters with 0 restraints. Two atoms, O2 and C13 show relatively
higher thermal parameters. No disorder could be resolved.
Since the solvent region could not be modelled satisfactorily, we
resorted to SQUEEZE. The model was completed with squeezed data.
;


